1534
7932
6610
7739
9396
7074
5016
7243
4571
1735
8820
6558
3312
2901
9033
2682
6560
6325
4578
7343
4090
5533
9038
3769
8030
798
6143
967
9198
2048
8057
9251
7745
6834
7156
6134
5102
985
2916
5279
980
6578
8700
435
3607
892
850
7434
6270
708
